100 8
532 731
504 735
391 612
368 711
821 767
582 192
250 822
34 946
541 54
495 721
102 906
75 557
250 831
613 488
734 722
647 64
557 769
585 667
175 784
308 864
121 553
583 544
733 504
691 431
902 815
333 789
728 963
443 612
632 827
153 709
873 784
599 54
83 833
81 546
372 787
470 147
765 653
967 571
187 689
496 629
544 74
726 929
342 811
112 958
791 693
203 604
418 80
130 916
463 657
175 664
155 669
592 819
592 341
610 873
928 563
402 598
755 781
706 517
270 822
697 970
290 762
461 510
972 565
444 388
528 321
224 855
664 913
550 393
539 381
43 636
257 849
311 745
310 833
51 679
481 109
258 837
598 850
388 744
746 862
944 573
923 857
504 158
765 713
85 968
480 753
729 844
564 167
488 325
626 594
399 818
645 574
483 317
815 823
665 802
731 688
388 253
663 902
598 799
529 111
103 600
